
  15    0


   0   9 2 4 5 6 10 11 12 13 14 
   1   2 9 3 
   2   1 7 
   9   1 8 
   7   1 7 
   4   1 7 
  10   1 15
   2   1 15
   8   1 15
   9   1 15
  10   1 15
   2   1 15
   3   1 15
   7   1 15
   0   0 
